# 8965
param k := 6;
param n := 50;
param s := 1;
set E :=  (0,19) (0,25) (0,33) (1,20) (2,29) (2,39) (2,46) (3,31) (3,36) (3,45) (4,24) (5,14) (5,24) (5,30) (5,41) (6,28) (6,32) (6,44) (7,10) (7,17) (7,40) (8,26) (8,37) (9,29) (9,34) (9,37) (11,18) (11,22) (11,39) (12,26) (13,14) (14,21) (15,30) (15,47) (16,42) (16,45) (17,20) (18,49) (19,32) (22,48) (23,25) (24,26) (24,40) (25,44) (27,42) (27,43) (30,42) (35,44) (36,44) (38,44) (39,42) (45,48);